NAME : portcgen-17-26
COMMENT : portcgen N=17, seed=26
TYPE : TSP
DIMENSION : 17
EDGE_WEIGHT_TYPE : EUC_2D
NODE_COORD_SECTION
1 -201279 -65582
2 174574 -264627
3 -9899 -96627
4 -257230 400805
5 -206648 100027
6 203487 7890
7 -106886 25054
8 -400470 -120446
9 75471 264519
10 -56589 -409958
11 -329077 369483
12 -177001 -76700
13 -133485 263440
14 -187998 -319648
15 323076 -639010
16 48314 -242206
17 334789 227472
